NAME : ClusterId_1046 
COMMENT : (Gillet and Johnson) 
TYPE : CVRP 
DIMENSION : 24 
EDGE_WEIGHT_TYPE : EUC_2D 
CAPACITY : 500 
NODE_COORD_SECTION 
1046 8230 1170 
741 9271 1359 
416 9129 1244 
648 9016 1217 
156 8824 1046 
849 8464 709 
181 8668 991 
402 8371 669 
752 8439 765 
903 8244 786 
346 7786 333 
820 8000 539 
590 8756 1444 
224 7470 222 
866 8868 1767 
531 8759 1658 
897 7384 245 
634 7287 232 
949 7823 631 
885 7466 395 
659 8099 1123 
762 7593 600 
692 8424 1532 
965 8322 1702 
DEMAND_SECTION 
1046 964
741 26
416 40
648 55
156 51
849 32
181 45
402 32
752 38
903 30
346 46
820 45
590 47
224 55
866 28
531 39
897 44
634 49
949 56
885 43
659 41
762 47
692 41
965 29
DEPOT_SECTION 
1046
 -1
EOF